nodesNumber = 5;
minColorsNumber = 3;
maxClique = [1, 2, 3];

edges = array2d(1..5, 1..5, [
  false, true, false, true, false, true, false, true, false, false, false, true, false, false, false, true, false, false, false, false, false, false, false, false, false
]);
